p cnf 10 50
8 4 -7 0
10 -5 6 0
8 1 9 0
-7 -8 1 0
-9 -7 10 0
4 -5 -6 0
-2 -9 -5 0
6 -10 -9 0
-1 10 -9 0
5 1 -10 0
-9 1 7 0
-6 -4 -7 0
-9 -10 -5 0
3 2 -5 0
-6 4 10 0
-5 8 6 0
1 3 -8 0
3 -2 -10 0
8 4 9 0
8 -5 2 0
-8 9 -3 0
-4 6 -10 0
-8 10 1 0
9 -3 6 0
1 -2 6 0
-5 -7 -4 0
4 6 1 0
-2 3 -4 0
-5 10 9 0
-7 -1 8 0
-1 -8 10 0
-3 -9 1 0
3 -9 -8 0
5 -3 8 0
4 -7 -6 0
-6 -8 -10 0
6 -3 4 0
-5 3 -2 0
-3 -8 -1 0
-7 8 -4 0
-6 -4 -1 0
-8 -1 -7 0
-5 6 4 0
-7 -9 6 0
-7 -1 10 0
-4 -3 -5 0
-5 4 -10 0
-6 10 -2 0
3 6 9 0
-3 6 1 0